job_count = 16 ;
duration = [|9, 8|14, 2|4, 8|2, 2|4, 7|17, 1|15, 4|13, 8|2, 4|3, 9|12, 3|15, 6|2, 3|15, 1|11, 9|11, 8|] ;
machine_count = 2 ;
cost = [|19, 31|18, 38|19, 36|10, 20|16, 37|11, 30|16, 23|11, 20|10, 20|13, 26|17, 20|14, 38|11, 25|10, 20|12, 36|12, 32|] ;
deadline = [40, 40, 40, 40, 40, 40, 40, 40, 40, 40, 40, 40, 40, 40, 40, 40] ;
release = [0, 0, 0, 0, 0, 0, 0, 0, 0, 0, 0, 0, 0, 0, 0, 0] ;
resource = [|9, 9|3, 3|5, 5|2, 2|1, 1|9, 9|4, 4|8, 8|1, 1|8, 8|7, 7|5, 5|7, 7|9, 9|7, 7|3, 3|] ;
capacities = [10, 10] ;
